Route #1: 100 97 92 94 3 4
Route #2: 46 40 57 87
Route #3: 76 71 70 73 79 80 96
Route #4: 21 25 11 10 8
Route #5: 1 99 95 98 7 89 0 18 19 16 14 12 0 52 50 51 45 42 41 43 47 48
Route #6: 93 5 2 75 0 27 30 37 38 35 31 0 91 88 84 82 83 90
Route #7: 24 33 32 6 0 20 22 0 68 65 55 54 53 49 0 86 85 81 78 77
Route #8: 63 62 67 0 74 72 61 64 66 69 0 29 34 36 39 28 26 23 0 59 56 58 60 44 0 9 13 15 17
Cost: 14744
Optimal: True
